NAME : LC1_6_9
TYPE : PDPTW
DIMENSION : 150
EDGE_WEIGHT_TYPE : EXACT_2D
NODE_COORD_SECTION
1 1 0
2 150 0
3 0 0
4 20 150
5 85 2
6 415 775
7 3 229
8 466 90
9 214 156
10 90 0
11 260 10
12 0 39
13 10 175
14 161 7
15 163 523
16 8 85
17 1123 90
18 105 230
19 90 0
20 111 -10
21 173 0
22 -10 929
23 0 12
24 483 843
25 13 143
26 399 90
27 173 233
28 90 226
29 24 20
30 0 153
31 -20 139
32 0 17
33 412 772
34 18 141
35 378 90
36 100 73
37 0 0
38 70 30
39 0 382
40 -20 158
41 0 22
42 269 629
43 23 129
44 798 0
45 62 65
46 90 336
47 239 10
48 0 433
49 -30 417
50 0 27
51 568 928
52 28 203
53 413 90
54 251 241
55 90 204
56 110 -20
57 86 0
58 -10 93
59 0 32
60 699 1059
61 33 145
62 675 90
63 121 170
64 90 0
65 141 20
66 0 373
67 20 216
68 163 37
69 555 915
70 38 122
71 685 90
72 119 267
73 90 5
74 113 20
75 0 612
76 -20 516
77 0 42
78 116 476
79 43 157
80 1287 90
81 73 226
82 0 0
83 109 -10
84 580 0
85 -10 721
86 0 47
87 54 414
88 48 31
89 892 90
90 10 147
91 90 400
92 176 -10
93 420 0
94 20 135
95 16 52
96 125 485
97 53 119
98 659 90
99 220 74
100 90 302
101 175 30
102 0 627
103 30 498
104 529 57
105 135 495
106 58 61
107 641 90
108 140 143
109 90 0
110 125 30
111 0 229
112 20 38
113 88 62
114 653 1013
115 63 103
116 458 90
117 71 154
118 90 285
119 27 20
120 0 82
121 -20 651
122 0 67
123 387 747
124 68 108
125 418 90
126 86 230
127 90 0
128 221 10
129 0 168
130 -30 44
131 0 72
132 217 577
133 73 151
134 595 90
135 83 30
136 90 0
137 184 20
138 0 340
139 10 48
140 267 77
141 420 780
142 78 263
143 772 90
144 259 59
145 90 0
146 26 10
147 0 102
148 -10 870
149 0 82
150 543 903
PICKUP_AND_DELIVERY_SECTION
1 0 0 0 0 0 0
2 0 0 0 0 1496 0
3 0 0 0 0 0 17
4 0 0 0 0 90 90
5 0 0 0 0 254 254
6 0 0 0 0 112 112
7 0 0 0 0 10 10
8 0 0 0 0 535 0
9 0 0 0 0 522 522
10 0 0 0 0 5 5
11 0 0 0 0 566 566
12 0 0 0 0 29 29
13 0 0 0 0 90 90
14 0 0 0 0 277 277
15 0 0 0 0 63 63
16 0 0 0 0 -10 -10
17 0 0 0 0 0 0
18 0 0 0 0 91 91
19 0 0 0 0 10 10
20 0 0 0 0 400 400
21 0 0 0 0 65 65
22 0 0 0 0 90 90
23 0 0 0 0 233 233
24 0 0 0 0 554 554
25 0 0 0 0 20 20
26 0 0 0 0 308 0
27 0 0 0 0 473 473
28 0 0 0 0 15 0
29 0 0 0 0 684 684
30 0 0 0 0 277 277
31 0 0 0 0 90 90
32 0 0 0 0 105 105
33 0 0 0 0 0 0
34 0 0 0 0 30 30
35 0 0 0 0 517 0
36 0 0 0 0 92 92
37 0 0 0 0 20 20
38 0 0 0 0 479 479
39 0 0 0 0 161 161
40 0 0 0 0 90 90
41 0 0 0 0 280 280
42 0 0 0 0 0 0
43 0 0 0 0 20 20
44 0 0 0 0 608 0
45 0 0 0 0 784 784
46 0 0 0 0 25 0
47 0 0 0 0 782 782
48 0 0 0 0 9 9
49 0 0 0 0 90 90
50 0 0 0 0 228 228
51 0 0 0 0 0 0
52 0 0 0 0 20 20
53 0 0 0 0 243 0
54 0 0 0 0 135 135
55 0 0 0 0 30 0
56 0 0 0 0 604 604
57 0 0 0 0 106 106
58 0 0 0 0 90 90
59 0 0 0 0 102 102
60 0 0 0 0 0 0
61 0 0 0 0 10 10
62 0 0 0 0 316 0
63 0 0 0 0 417 417
64 0 0 0 0 35 35
65 0 0 0 0 675 675
66 0 0 0 0 167 167
67 0 0 0 0 90 90
68 0 0 0 0 229 229
69 0 0 0 0 0 0
70 0 0 0 0 -20 -20
71 0 0 0 0 0 0
72 0 0 0 0 487 487
73 0 0 0 0 40 0
74 0 0 0 0 917 917
75 0 0 0 0 257 257
76 0 0 0 0 90 90
77 0 0 0 0 266 266
78 0 0 0 0 0 0
79 0 0 0 0 -20 -20
80 0 0 0 0 0 0
81 0 0 0 0 108 108
82 0 0 0 0 45 45
83 0 0 0 0 446 446
84 0 0 0 0 12 12
85 0 0 0 0 90 90
86 0 0 0 0 126 126
87 0 0 0 0 0 0
88 0 0 0 0 -10 -10
89 0 0 0 0 0 0
90 0 0 0 0 234 234
91 0 0 0 0 50 0
92 0 0 0 0 485 485
93 0 0 0 0 277 277
94 0 0 0 0 90 90
95 0 0 0 0 232 232
96 0 0 0 0 0 0
97 0 0 0 0 20 20
98 0 0 0 0 270 0
99 0 0 0 0 677 677
100 0 0 0 0 55 0
101 0 0 0 0 592 592
102 0 0 0 0 144 144
103 0 0 0 0 90 90
104 0 0 0 0 285 285
105 0 0 0 0 0 0
106 0 0 0 0 40 40
107 0 0 0 0 215 0
108 0 0 0 0 12 12
109 0 0 0 0 60 60
110 0 0 0 0 517 517
111 0 0 0 0 114 114
112 0 0 0 0 90 90
113 0 0 0 0 80 80
114 0 0 0 0 0 0
115 0 0 0 0 20 20
116 0 0 0 0 7 0
117 0 0 0 0 745 745
118 0 0 0 0 65 0
119 0 0 0 0 590 590
120 0 0 0 0 67 67
121 0 0 0 0 90 90
122 0 0 0 0 132 132
123 0 0 0 0 196 196
124 0 0 0 0 10 10
125 0 0 0 0 593 0
126 0 0 0 0 102 102
127 0 0 0 0 70 70
128 0 0 0 0 1208 1208
129 0 0 0 0 116 116
130 0 0 0 0 90 90
131 0 0 0 0 28 28
132 0 0 0 0 0 0
133 0 0 0 0 20 20
134 0 0 0 0 266 0
135 0 0 0 0 420 420
136 0 0 0 0 75 75
137 0 0 0 0 399 399
138 0 0 0 0 141 141
139 0 0 0 0 90 90
140 0 0 0 0 156 156
141 0 0 0 0 582 582
142 0 0 0 0 -20 -20
143 0 0 0 0 0 0
144 0 0 0 0 421 421
145 0 0 0 0 80 80
146 0 0 0 0 1132 1132
147 0 0 0 0 59 59
148 0 0 0 0 90 90
149 0 0 0 0 4 4
150 0 0 0 0 65 65
DEPOT_SECTION
1 
-1
EOF
